(set-logic HORN)
(declare-fun state (Int (Array Int Int) (Array Int Int) (Array Int Int) (Array Int Int) Int Int (Array Int Int) (Array Int Int) Int Int Int Int Int Int Int Int Int Int Int Int Int Int Int Int Int Int Int Int Int Int Int Int Int Int Int Int Int Int Int Bool Bool Bool Bool Bool (Array Int Int) Int) Bool)
(assert (forall ((|A_26| Int) (|B_26| (Array Int Int)) (|C_26| (Array Int Int)) (|D_26| (Array Int Int)) (|E_26| (Array Int Int)) (|F_26| Int) (|G_26| Int) (|H_26| (Array Int Int)) (|I_26| (Array Int Int)) (|J_26| Int) (|K_26| Int) (|L_26| Int) (|M_26| Int) (|N_26| Int) (|O_26| Int) (|P_26| Int) (|Q_26| Int) (|R_26| Int) (|S_26| Int) (|T_26| Int) (|U_26| Int) (|V_26| Int) (|W_26| Int) (|X_26| Int) (|Y_26| Int) (|Z_26| Int) (|A1_26| Int) (|B1_26| Int) (|C1_26| Int) (|D1_26| Int) (|E1_26| Int) (|F1_26| Int) (|P1_16| Int) (|H1_26| Int) (|I1_26| Int) (|J1_26| Int) (|K1_26| Int) (|L1_26| Int) (|M1_26| Int) (|N1_26| Int) (|O1_26| Bool) (|.loc.5| Bool) (|.loc.6| Bool) (|.loc.7| Bool) (|.loc.8| Bool) (|P1_0| (Array Int Int)) (|Z1_0| Int) (|.x.1225| Int) (|.x.1227| (Array Int Int)) (|.x.1229| (Array Int Int)) (|.x.1231| Int) (|.x.1235| Int) (|.x.1233| (Array Int Int)) (|.x.1239| Int) (|.x.1250| Int) (|.x.1241| Int) (|.x.1242| Int) (|.x.1248| Int) (|.x.1246| Int) (|.x.1257| Int) (|.x.1258| Int) (|O1_31| Bool) (|.x.1253| Int) (|.x.1243| Int) (|.x.1236| Int) (|.x.1226| (Array Int Int)) (|.x.1259| Int) (|.loc.9| Bool) (|.loc.11| Bool) (|.loc.10| Bool) (|.x.1247| Int) (|.x.1249| Int) (|.x.1245| Int) (|.x.1238| Int) (|.x.1237| Int) (|.x.1252| Int) (|.x.1260| Int) (|.x.1256| Int) (|.x.1228| (Array Int Int)) (|.x.1251| Int) (|.x.1255| Int) (|.x.1244| Int) (|.loc.12| Bool) (|.x.1254| Int) (|.x.1261| Int) (|.x.1240| Int) (|.x.1262| Int) (|.x.1264| Int) (|.x.1263| Int) (|.x.1230| Int) (|.x.1234| Int) (|.x.1232| (Array Int Int)) (|.xtv.1| (Array Int Int)) (|.xtv.2| Int)) (=> (and (and (and (and (not .loc.6) (not .loc.5)) (not .loc.7)) (not .loc.8)) (and (and (and (and (and (= D_26 E_26) (not O1_26)) (= F_26 G_26)) (= J_26 K_26)) (= H_26 I_26)) (= B_26 C_26))) (state |A_26| |B_26| |C_26| |D_26| |E_26| |F_26| |G_26| |H_26| |I_26| |J_26| |K_26| |L_26| |M_26| |N_26| |O_26| |P_26| |Q_26| |R_26| |S_26| |T_26| |U_26| |V_26| |W_26| |X_26| |Y_26| |Z_26| |A1_26| |B1_26| |C1_26| |D1_26| |E1_26| |F1_26| |P1_16| |H1_26| |I1_26| |J1_26| |K1_26| |L1_26| |M1_26| |N1_26| |O1_26| |.loc.5| |.loc.6| |.loc.7| |.loc.8| |P1_0| |Z1_0|))))
(assert (forall ((|A_26| Int) (|B_26| (Array Int Int)) (|C_26| (Array Int Int)) (|D_26| (Array Int Int)) (|E_26| (Array Int Int)) (|F_26| Int) (|G_26| Int) (|H_26| (Array Int Int)) (|I_26| (Array Int Int)) (|J_26| Int) (|K_26| Int) (|L_26| Int) (|M_26| Int) (|N_26| Int) (|O_26| Int) (|P_26| Int) (|Q_26| Int) (|R_26| Int) (|S_26| Int) (|T_26| Int) (|U_26| Int) (|V_26| Int) (|W_26| Int) (|X_26| Int) (|Y_26| Int) (|Z_26| Int) (|A1_26| Int) (|B1_26| Int) (|C1_26| Int) (|D1_26| Int) (|E1_26| Int) (|F1_26| Int) (|P1_16| Int) (|H1_26| Int) (|I1_26| Int) (|J1_26| Int) (|K1_26| Int) (|L1_26| Int) (|M1_26| Int) (|N1_26| Int) (|O1_26| Bool) (|.loc.5| Bool) (|.loc.6| Bool) (|.loc.7| Bool) (|.loc.8| Bool) (|P1_0| (Array Int Int)) (|Z1_0| Int) (|.x.1225| Int) (|.x.1227| (Array Int Int)) (|.x.1229| (Array Int Int)) (|.x.1231| Int) (|.x.1235| Int) (|.x.1233| (Array Int Int)) (|.x.1239| Int) (|.x.1250| Int) (|.x.1241| Int) (|.x.1242| Int) (|.x.1248| Int) (|.x.1246| Int) (|.x.1257| Int) (|.x.1258| Int) (|O1_31| Bool) (|.x.1253| Int) (|.x.1243| Int) (|.x.1236| Int) (|.x.1226| (Array Int Int)) (|.x.1259| Int) (|.loc.9| Bool) (|.loc.11| Bool) (|.loc.10| Bool) (|.x.1247| Int) (|.x.1249| Int) (|.x.1245| Int) (|.x.1238| Int) (|.x.1237| Int) (|.x.1252| Int) (|.x.1260| Int) (|.x.1256| Int) (|.x.1228| (Array Int Int)) (|.x.1251| Int) (|.x.1255| Int) (|.x.1244| Int) (|.loc.12| Bool) (|.x.1254| Int) (|.x.1261| Int) (|.x.1240| Int) (|.x.1262| Int) (|.x.1264| Int) (|.x.1263| Int) (|.x.1230| Int) (|.x.1234| Int) (|.x.1232| (Array Int Int)) (|.xtv.1| (Array Int Int)) (|.xtv.2| Int)) (=> (and (state |A_26| |B_26| |C_26| |D_26| |E_26| |F_26| |G_26| |H_26| |I_26| |J_26| |K_26| |L_26| |M_26| |N_26| |O_26| |P_26| |Q_26| |R_26| |S_26| |T_26| |U_26| |V_26| |W_26| |X_26| |Y_26| |Z_26| |A1_26| |B1_26| |C1_26| |D1_26| |E1_26| |F1_26| |P1_16| |H1_26| |I1_26| |J1_26| |K1_26| |L1_26| |M1_26| |N1_26| |O1_26| |.loc.5| |.loc.6| |.loc.7| |.loc.8| |P1_0| |Z1_0|) (let ((.def_57 (not .loc.6))) (let ((.def_58 (not .loc.5))) (let ((.def_60 (not .loc.7))) (let ((.def_62 (not .loc.8))) (let ((.def_103 (= .x.1242 .x.1248))) (let ((.def_106 (= .x.1248 .x.1246))) (let ((.def_117 (and (<= .x.1257 2147483647) (<= (- 2147483648) .x.1257)))) (let ((.def_118 (and (= .x.1242 .x.1257) .def_117))) (let ((.def_121 (= H1_26 .x.1258))) (let ((.def_125 (= C1_26 .x.1253))) (let ((.def_128 (= S_26 .x.1243))) (let ((.def_131 (= L_26 .x.1236))) (let ((.def_134 (= B_26 .x.1226))) (let ((.def_146 (ite (<= (+ N_26 (* (- 4294967296) (to_int (* (/ 1 4294967296) (to_real N_26))))) 2147483647) (+ N_26 (* (- 4294967296) (to_int (* (/ 1 4294967296) (to_real N_26))))) (+ (- 4294967296) (+ N_26 (* (- 4294967296) (to_int (* (/ 1 4294967296) (to_real N_26))))))))) (let ((.def_148 (or O1_26 (= .x.1257 .def_146)))) (let ((.def_162 (= O1_26 O1_31))) (let ((.def_165 (= I1_26 .x.1259))) (let ((.def_167 (= P1_16 .x.1257))) (let ((.def_169 (= R_26 .x.1242))) (let ((.def_174 (not .loc.9))) (let ((.def_178 (not .loc.10))) (let ((.def_187 (and .def_134 (and .def_131 (and .def_128 (and .def_121 .def_125)))))) (let ((.def_193 (not .loc.11))) (let ((.def_226 (and .loc.5 .def_187))) (let ((.def_236 (<= 100 W_26))) (let ((.def_237 (or O1_26 .def_236))) (let ((.def_241 (= W_26 .x.1247))) (let ((.def_243 (= Y_26 .x.1249))) (let ((.def_246 (= U_26 .x.1245))) (let ((.def_249 (= N_26 .x.1238))) (let ((.def_264 (or O1_31 (= (+ W_26 (* (- 1) .x.1247)) (- 1))))) (let ((.def_281 (or O1_26 (and (= (+ N_26 (+ W_26 (+ (* (- 1) .x.1238) (select (select D_26 B1_26) (+ M_26 (* 4 W_26)))))) 0) (not .def_236))))) (let ((.def_285 (= M_26 .x.1237))) (let ((.def_287 (= B1_26 .x.1252))) (let ((.def_289 (= J1_26 .x.1260))) (let ((.def_291 (= F1_26 .x.1256))) (let ((.def_293 (and .def_287 (and .def_289 .def_291)))) (let ((.def_296 (= D_26 .x.1228))) (let ((.def_301 (select D_26 L_26))) (let ((.def_305 (= C1_26 .x.1256))) (let ((.def_306 (= L_26 .x.1260))) (let ((.def_308 (= .x.1252 .x.1260))) (let ((.def_310 (= .x.1247 0))) (let ((.def_312 (= .x.1238 0))) (let ((.def_314 (= .x.1237 .x.1256))) (let ((.def_357 (<= 99 A1_26))) (let ((.def_360 (and .def_291 (and .def_121 .def_289)))) (let ((.def_369 (and .def_131 (and .def_285 (and .def_249 (and .def_128 (and .def_246 (and .def_241 (and .def_243 (and .def_287 (and .def_125 .def_360))))))))))) (let ((.def_386 (= A1_26 .x.1251))) (let ((.def_388 (= E1_26 .x.1255))) (let ((.def_391 (= T_26 .x.1244))) (let ((.def_424 (not .loc.12))) (let ((.def_430 (= D1_26 .x.1254))) (let ((.def_432 (= K1_26 .x.1261))) (let ((.def_434 (= V_26 .x.1246))) (let ((.def_437 (= P_26 .x.1240))) (let ((.def_517 (and .def_386 (and .def_287 (and .def_125 (and .def_430 (and .def_388 (and .def_291 (and .def_121 (and .def_289 .def_432)))))))))) (let ((.def_567 (= X_26 .x.1248))) (let ((.def_569 (= L1_26 .x.1262))) (let ((.def_571 (= N1_26 .x.1264))) (let ((.def_573 (= M1_26 .x.1263))) (let ((.def_575 (and .def_569 (and .def_571 .def_573)))) (let ((.def_590 (select D_26 .x.1236))) (let ((.def_654 (and .loc.5 (and .def_134 (and .def_296 (and .def_131 (and .def_285 (and .def_249 (and .def_437 (and .def_128 (and .def_391 (and .def_246 (and .def_434 (and .def_241 (and .def_567 (and .def_243 (and .def_386 (and .def_287 (and .def_125 (and .def_430 (and .def_388 (and .def_291 (and .def_121 (and .def_289 (and .def_432 (and .def_569 (and .def_573 (and O1_26 .def_571)))))))))))))))))))))))))))) (let ((.def_667 (and .def_432 .def_575))) (let ((.def_675 (and .def_386 (and .def_287 (and .def_125 (and .def_430 (and .def_388 (and .def_291 (and .def_121 (and .def_289 .def_667)))))))))) (let ((.def_686 (and .def_131 (and .def_285 (and .def_249 (and .def_437 (and .def_128 (and .def_391 (and .def_246 (and .def_434 (and .def_241 (and .def_567 (and .def_243 .def_675))))))))))))) (let ((.def_689 (and .loc.5 (and .def_134 (and .def_296 .def_686))))) (let ((.def_771 (<= 100 Z_26))) (and (and (= A_26 .x.1225) (and (= C_26 .x.1227) (and (= E_26 .x.1229) (and (= G_26 .x.1231) (and (= K_26 .x.1235) (= I_26 .x.1233)))))) (or (and (or (and (and (= O_26 .x.1239) (and (= Z_26 .x.1250) (= Q_26 .x.1241))) (or (or (or (or (or (or (or (and (or (or (or (or (and (or (and (or (or (and (or (and (or (and (or (or (and .loc.6 (or (or (and (or (and .def_58 (and (or (not .def_103) (or O1_26 (not .def_106))) (and (or O1_26 .def_118) (and (and (and (and (and (and .def_121 O1_31) .def_125) .def_128) .def_131) .def_134) .def_148)))) (and (or O1_26 (and (= .x.1258 1) (= .x.1226 (store B_26 L_26 0)))) (and (and (and (and (and .loc.5 (or O1_31 (= .x.1258 .x.1243))) .def_162) .def_165) .def_167) .def_169))) (and (and .def_174 .loc.11) .def_178)) (and (or .def_118 O1_31) (and (or O1_31 (and .def_103 .def_106)) (and (and .def_162 (and .loc.10 (and .loc.9 (and .def_58 (and .def_148 .def_187))))) .def_193)))) (and .def_193 (and .loc.10 (and .loc.9 (and .def_58 (and .def_148 (and .def_134 (and .def_131 (and .def_128 (and .def_125 (and .def_121 (and O1_26 O1_31))))))))))))) (and .def_57 (and .def_193 (and .def_169 (and .def_167 (and .def_165 (and .def_162 (and .def_174 (and .loc.10 (and .loc.5 (and .def_134 (and .def_131 (and .def_128 (and .def_125 (and O1_26 .def_121))))))))))))))) (and (and .def_57 (and .def_193 (and .def_169 (and .def_167 (and .def_165 (and .def_162 (and .def_174 (and .loc.10 .def_226)))))))) .def_237)) (and (and (and .def_241 .def_243) .def_246) .def_249)) (and (and (and .def_57 (and .def_193 (and .def_169 (and .def_167 (and .def_165 (and .def_162 (and .def_178 (and .loc.9 .def_226)))))))) .def_264) .def_281)) (and (and .def_285 .def_293) .def_296)) (and (or O1_26 (and (= .x.1228 (store D_26 L_26 (store .def_301 (+ C1_26 396) P_26))) (and (and (and (and (and .def_305 .def_306) .def_308) .def_310) .def_312) .def_314))) (and .def_57 (and .def_193 (and .def_169 (and .def_165 (and .def_162 (and .def_178 (and .loc.9 (and .def_58 .def_187)))))))))) (and .loc.8 .def_60)) (and .def_62 (and .def_193 (and .def_169 (and .def_167 (and .def_165 (and .def_162 (and .def_178 (and .def_174 (and .loc.7 (and .loc.6 (and .loc.5 (and .def_134 (and .def_296 (and .def_131 (and .def_285 (and .def_249 (and .def_128 (and .def_246 (and .def_241 (and .def_243 (and .def_287 (and .def_125 (and .def_291 (and .def_121 (and O1_26 .def_289)))))))))))))))))))))))))) (and (or O1_26 .def_357) (and .def_62 (and .def_193 (and .def_169 (and .def_167 (and .def_165 (and .def_162 (and .def_178 (and .def_174 (and .loc.7 (and .loc.6 (and .loc.5 (and .def_134 (and .def_296 .def_369))))))))))))))) (and (and (and .def_386 .def_388) .def_391) .loc.12)) (and (or O1_26 (and (= .x.1228 (store D_26 L_26 (store .def_301 (+ (* 4 A1_26) C1_26) (select .def_301 (+ (+ (* 4 A1_26) C1_26) 4))))) (not .def_357))) (and (or O1_31 (= (+ A1_26 (* (- 1) .x.1251)) (- 1))) (and (and .def_62 (and .def_169 (and .def_167 (and .def_165 (and .def_162 (and .loc.11 (and .loc.10 (and .loc.9 (and .loc.7 (and .loc.6 (and .loc.5 (and .def_134 .def_369)))))))))))) .def_424)))) (and (and (and .def_430 .def_432) .def_434) .def_437)) (and (or O1_31 (and (and (and .def_117 (= .x.1246 .x.1257)) (= .x.1251 0)) (= .x.1240 (select (select .x.1228 .x.1236) .x.1253)))) (and .def_424 (and .def_62 (and .def_169 (and .def_165 (and .def_162 (and .loc.11 (and .loc.10 (and .loc.9 (and .def_58 (and .loc.7 (and .loc.6 (and .def_148 (and .def_134 (and .def_296 (and .def_131 (and .def_285 (and .def_249 (and .def_128 (and .def_391 (and .def_246 (and .def_241 (and .def_243 (and .def_287 (and .def_125 (and .def_360 .def_388))))))))))))))))))))))))))) (and .def_424 (and .def_62 (and .def_57 (and .def_169 (and .def_167 (and .def_165 (and .def_162 (and .def_174 (and .loc.11 (and .loc.10 (and .loc.7 (and .loc.5 (and .def_134 (and .def_296 (and .def_131 (and .def_285 (and .def_249 (and .def_437 (and .def_128 (and .def_391 (and .def_246 (and .def_434 (and .def_241 (and .def_243 (and .def_386 (and .def_287 (and .def_125 (and .def_430 (and .def_388 (and .def_291 (and .def_121 (and .def_289 (and O1_26 .def_432)))))))))))))))))))))))))))))))))) (and .def_424 (and .def_62 (and .def_237 (and .def_57 (and .def_169 (and .def_167 (and .def_165 (and .def_162 (and .def_174 (and .loc.11 (and .loc.10 (and .loc.7 (and .loc.5 (and .def_134 (and .def_296 (and .def_131 (and .def_285 (and .def_249 (and .def_437 (and .def_128 (and .def_391 (and .def_246 (and .def_434 (and .def_241 (and .def_243 .def_517)))))))))))))))))))))))))) (and .def_424 (and .def_62 (and .def_281 (and .def_264 (and .def_57 (and .def_169 (and .def_167 (and .def_165 (and .def_162 (and .def_178 (and .loc.11 (and .loc.9 (and .loc.7 (and .loc.5 (and .def_134 (and .def_296 (and .def_131 (and .def_285 (and .def_437 (and .def_128 (and .def_391 (and .def_434 .def_517))))))))))))))))))))))) (and .def_567 .def_575)) (and (or O1_26 (= Z1_0 .def_146)) (and (or O1_31 (and (and .def_310 (and (and (and .def_308 (and (and (= .x.1236 .x.1260) (and .def_312 (and .def_314 (and (<= .x.1248 2147483647) (<= (- 2147483648) .x.1248))))) (= .x.1253 .x.1256))) (= .x.1240 (select .def_590 .x.1253))) (= Z1_0 .x.1248))) (= .x.1228 (store D_26 .x.1236 (store (store .def_590 .x.1253 (select .def_590 (+ .x.1253 4))) (+ .x.1253 4) .x.1240))))) (and .def_424 (and .def_62 (and .def_57 (and .def_169 (and .def_165 (and .def_162 (and .def_178 (and .loc.11 (and .loc.9 (and .def_58 (and .loc.7 (and .def_134 (and .def_131 (and .def_128 (and .def_391 (and .def_434 (and .def_386 (and .def_125 (and .def_430 (and .def_388 (and .def_121 .def_432)))))))))))))))))))))))) (and .def_424 (and .def_62 (and .def_169 (and .def_167 (and .def_165 (and .def_162 (and .def_178 (and .def_174 (and .loc.11 (and .def_60 (and .loc.6 .def_654)))))))))))) (and .def_424 (and .def_62 (and .def_237 (and .def_169 (and .def_167 (and .def_165 (and .def_162 (and .def_178 (and .def_174 (and .loc.11 (and .def_60 (and .loc.6 .def_689))))))))))))) (and .def_424 (and .def_62 (and .def_281 (and .def_264 (and .def_193 (and .def_169 (and .def_167 (and .def_165 (and .def_162 (and .loc.10 (and .loc.9 (and .def_60 (and .loc.6 (and .loc.5 (and .def_134 (and .def_296 (and .def_131 (and .def_285 (and .def_437 (and .def_128 (and .def_391 (and .def_434 (and .def_567 .def_675)))))))))))))))))))))))) (and (or O1_26 (and .def_312 (and .def_314 (and .def_310 (and .def_305 (and .def_306 .def_308)))))) (and .def_424 (and .def_62 (and .def_193 (and .def_169 (and .def_165 (and .def_162 (and .loc.10 (and .loc.9 (and .def_60 (and .def_58 (and .loc.6 (and .def_134 (and .def_296 (and .def_131 (and .def_437 (and .def_128 (and .def_391 (and .def_434 (and .def_567 (and .def_386 (and .def_125 (and .def_430 (and .def_388 (and .def_121 .def_667)))))))))))))))))))))))))) (and .def_424 (and .def_62 (and .def_57 (and .def_193 (and .def_169 (and .def_167 (and .def_165 (and .def_162 (and .def_174 (and .loc.10 (and .def_60 .def_654)))))))))))) (and (or O1_26 .def_771) (and .def_424 (and .def_62 (and .def_57 (and .def_193 (and .def_169 (and .def_167 (and .def_165 (and .def_162 (and .def_174 (and .loc.10 (and .def_60 .def_689)))))))))))))) (and (or O1_26 (and (= .x.1228 (store D_26 L_26 (store .def_301 (+ (* 4 Z_26) C1_26) O_26))) (and (<= (- 2147483648) O_26) (and (<= O_26 2147483647) (not .def_771))))) (and (or O1_31 (= (+ Z_26 (* (- 1) .x.1250)) (- 1))) (and .def_424 (and .def_62 (and .def_57 (and .def_193 (and .def_169 (and .def_167 (and .def_165 (and .def_162 (and .def_178 (and .loc.9 (and .def_60 (and .loc.5 (and .def_134 .def_686)))))))))))))))) (and (= F_26 .x.1230) (and (= J_26 .x.1234) (= H_26 .x.1232)))) (and (or O1_26 (and (and (= .x.1234 0) (= .x.1230 0)) (= P1_0 (store B_26 0 0)))) (and (or O1_31 (and (and (and (and (and (and (not (<= .x.1225 .x.1236)) (not (= .x.1236 0))) (= .x.1250 0)) (= .x.1253 0)) (= (select P1_0 .x.1236) 0)) (= .x.1232 (store H_26 .x.1236 400))) (= .x.1226 (store P1_0 .x.1236 1)))) (and .def_424 (and .def_62 (and .def_57 (and .def_193 (and .def_167 (and .def_162 (and .def_178 (and .loc.9 (and .def_60 (and .def_58 (and .def_296 (and .def_285 (and .def_249 (and .def_128 (and .def_246 (and .def_241 (and .def_243 .def_293))))))))))))))))))))))))))))))))))))))))))))))))))))))))))))))))))))))))))))))))))))))))))) (state |.x.1225| |.x.1226| |.x.1227| |.x.1228| |.x.1229| |.x.1230| |.x.1231| |.x.1232| |.x.1233| |.x.1234| |.x.1235| |.x.1236| |.x.1237| |.x.1238| |.x.1239| |.x.1240| |.x.1241| |.x.1242| |.x.1243| |.x.1244| |.x.1245| |.x.1246| |.x.1247| |.x.1248| |.x.1249| |.x.1250| |.x.1251| |.x.1252| |.x.1253| |.x.1254| |.x.1255| |.x.1256| |.x.1257| |.x.1258| |.x.1259| |.x.1260| |.x.1261| |.x.1262| |.x.1263| |.x.1264| |O1_31| |.loc.9| |.loc.10| |.loc.11| |.loc.12| |.xtv.1| |.xtv.2|))))
(assert (forall ((|A_26| Int) (|B_26| (Array Int Int)) (|C_26| (Array Int Int)) (|D_26| (Array Int Int)) (|E_26| (Array Int Int)) (|F_26| Int) (|G_26| Int) (|H_26| (Array Int Int)) (|I_26| (Array Int Int)) (|J_26| Int) (|K_26| Int) (|L_26| Int) (|M_26| Int) (|N_26| Int) (|O_26| Int) (|P_26| Int) (|Q_26| Int) (|R_26| Int) (|S_26| Int) (|T_26| Int) (|U_26| Int) (|V_26| Int) (|W_26| Int) (|X_26| Int) (|Y_26| Int) (|Z_26| Int) (|A1_26| Int) (|B1_26| Int) (|C1_26| Int) (|D1_26| Int) (|E1_26| Int) (|F1_26| Int) (|P1_16| Int) (|H1_26| Int) (|I1_26| Int) (|J1_26| Int) (|K1_26| Int) (|L1_26| Int) (|M1_26| Int) (|N1_26| Int) (|O1_26| Bool) (|.loc.5| Bool) (|.loc.6| Bool) (|.loc.7| Bool) (|.loc.8| Bool) (|P1_0| (Array Int Int)) (|Z1_0| Int) (|.x.1225| Int) (|.x.1227| (Array Int Int)) (|.x.1229| (Array Int Int)) (|.x.1231| Int) (|.x.1235| Int) (|.x.1233| (Array Int Int)) (|.x.1239| Int) (|.x.1250| Int) (|.x.1241| Int) (|.x.1242| Int) (|.x.1248| Int) (|.x.1246| Int) (|.x.1257| Int) (|.x.1258| Int) (|O1_31| Bool) (|.x.1253| Int) (|.x.1243| Int) (|.x.1236| Int) (|.x.1226| (Array Int Int)) (|.x.1259| Int) (|.loc.9| Bool) (|.loc.11| Bool) (|.loc.10| Bool) (|.x.1247| Int) (|.x.1249| Int) (|.x.1245| Int) (|.x.1238| Int) (|.x.1237| Int) (|.x.1252| Int) (|.x.1260| Int) (|.x.1256| Int) (|.x.1228| (Array Int Int)) (|.x.1251| Int) (|.x.1255| Int) (|.x.1244| Int) (|.loc.12| Bool) (|.x.1254| Int) (|.x.1261| Int) (|.x.1240| Int) (|.x.1262| Int) (|.x.1264| Int) (|.x.1263| Int) (|.x.1230| Int) (|.x.1234| Int) (|.x.1232| (Array Int Int)) (|.xtv.1| (Array Int Int)) (|.xtv.2| Int)) (=> (state |A_26| |B_26| |C_26| |D_26| |E_26| |F_26| |G_26| |H_26| |I_26| |J_26| |K_26| |L_26| |M_26| |N_26| |O_26| |P_26| |Q_26| |R_26| |S_26| |T_26| |U_26| |V_26| |W_26| |X_26| |Y_26| |Z_26| |A1_26| |B1_26| |C1_26| |D1_26| |E1_26| |F1_26| |P1_16| |H1_26| |I1_26| |J1_26| |K1_26| |L1_26| |M1_26| |N1_26| |O1_26| |.loc.5| |.loc.6| |.loc.7| |.loc.8| |P1_0| |Z1_0|) (not (and O1_26 (and .loc.8 (and .loc.7 (and (not .loc.6) (not .loc.5)))))))))
(check-sat)
